s td 12 29 40
b 1 1 2 4 5 6 7 9 11 12 13 14 15 16 18 19 21 22 23 24 25 26 28 29 32 33 34 35 36 40
b 2 1 4 5 6 7 9 11 12 13 14 15 16 18 19 21 22 23 24 25 26 28 29 31 32 33 34 35 36 40
b 3 1 4 5 6 7 9 11 12 13 14 15 16 18 19 20 21 22 23 24 25 26 28 31 32 33 34 35 36 40
b 4 1 4 5 6 7 9 10 11 12 13 14 15 16 18 19 20 21 22 23 24 25 26 28 31 32 33 34 36 40
b 5 1 4 5 6 7 9 10 11 12 13 15 16 18 19 20 21 22 23 24 25 26 28 31 32 33 34 36 38
b 6 1 3 4 5 6 9 10 11 12 13 15 16 18 19 20 21 22 23 24 26 28 31 32 33 34 36 38
b 7 1 3 4 6 9 12 13 21 22 23 24 33 38 39
b 8 1 4 5 6 11 12 13 14 20 22 24 25 27 32 33 34 35
b 9 1 2 4 5 6 7 9 11 13 14 15 16 17 18 19 21 22 23 24 25 26 28 29 32 33 34 35 36 40
b 10 1 2 4 6 7 8 11 13 15 16 17 18 19 21 23 24 25 26 28 29 32 33 36 40
b 11 1 4 6 7 8 11 13 15 17 18 19 21 24 26 28 32 33 36 37 40
b 12 1 4 5 9 11 13 14 17 19 23 24 26 28 29 30 36
1 2
1 9
2 3
3 4
3 8
4 5
5 6
6 7
9 10
9 12
10 11
